p wcnf 195 98 99 
1 -59 -80 0 
1 -143 110 0 
1 137 193 0 
1 108 97 0 
1 -25 22 0 
1 74 49 0 
1 -44 -49 0 
1 -31 -89 0 
1 -63 62 0 
1 -62 52 0 
1 -73 122 0 
1 -37 -182 0 
1 -106 10 0 
1 10 178 0 
1 -152 -40 0 
1 72 -4 0 
1 97 -127 0 
1 187 2 0 
1 -58 -1 0 
1 -20 129 0 
1 -116 73 0 
1 -169 -124 0 
1 -137 15 0 
1 -26 180 0 
1 -34 -107 0 
1 -46 112 0 
1 -52 -109 0 
1 -183 -29 0 
1 -78 147 0 
1 79 -193 0 
1 -158 176 0 
1 -65 -192 0 
1 -157 162 0 
1 -142 194 0 
1 -52 5 0 
1 100 -40 0 
1 -47 135 0 
1 107 96 0 
1 160 -87 0 
1 120 -97 0 
1 124 137 0 
1 -76 180 0 
1 -115 108 0 
1 -72 80 0 
1 37 -36 0 
1 87 111 0 
1 23 68 0 
1 75 56 0 
1 134 -41 0 
1 -99 45 0 
1 -76 18 0 
1 75 44 0 
1 -8 -120 0 
1 70 49 0 
1 139 -79 0 
1 109 -81 0 
1 -23 -188 0 
1 184 -98 0 
1 168 133 0 
1 58 -40 0 
1 192 -23 0 
1 45 -190 0 
1 190 117 0 
1 123 3 0 
1 106 -115 0 
1 -185 -181 0 
1 24 70 0 
1 -175 -18 0 
1 -111 -48 0 
1 -184 100 0 
1 40 -182 0 
1 192 12 0 
1 119 152 0 
1 -63 -125 0 
1 104 -155 0 
1 -8 163 0 
1 98 40 0 
1 -24 76 0 
1 -142 -56 0 
1 144 116 0 
1 125 -114 0 
1 -189 148 0 
1 -29 139 0 
1 -31 -102 0 
1 137 107 0 
1 190 102 0 
1 -66 -104 0 
1 25 150 0 
1 7 78 0 
1 -171 -20 0 
1 -195 -96 0 
1 -132 133 0 
1 -195 -107 0 
1 11 100 0 
1 -186 -158 0 
1 174 -78 0 
1 -123 -75 0 
1 -152 -109 0 
